data/MCDM/NO_CORR/GEN_FROM_60/19_ITEMS_1000_GEN/K5019W07.KNP.mps
NAME          BLANK   
ROWS
 N  OBJROW
 L  R0000000
COLUMNS
    C0000000  OBJROW     -276.         R0000000  146.        
    C0000001  OBJROW     -398.         R0000000  217.        
    C0000002  OBJROW     -938.         R0000000  888.        
    C0000003  OBJROW     -627.         R0000000  610.        
    C0000004  OBJROW     -985.         R0000000  896.        
    C0000005  OBJROW     -635.         R0000000  874.        
    C0000006  OBJROW     -838.         R0000000  912.        
    C0000007  OBJROW     -949.         R0000000  314.        
    C0000008  OBJROW     -503.         R0000000  74.         
    C0000009  OBJROW     -361.         R0000000  226.        
    C0000010  OBJROW     -250.         R0000000  150.        
    C0000011  OBJROW     -376.         R0000000  534.        
    C0000012  OBJROW     -98.          R0000000  365.        
    C0000013  OBJROW     -971.         R0000000  654.        
    C0000014  OBJROW     -362.         R0000000  690.        
    C0000015  OBJROW     -890.         R0000000  24.         
    C0000016  OBJROW     -33.          R0000000  938.        
    C0000017  OBJROW     -840.         R0000000  823.        
    C0000018  OBJROW     -850.         R0000000  20.         
RHS
    RHS       R0000000  16386.      
BOUNDS
 BV BOUND     C0000000  1.          
 BV BOUND     C0000001  1.          
 BV BOUND     C0000002  1.          
 BV BOUND     C0000003  1.          
 BV BOUND     C0000004  1.          
 BV BOUND     C0000005  1.          
 BV BOUND     C0000006  1.          
 BV BOUND     C0000007  1.          
 BV BOUND     C0000008  1.          
 BV BOUND     C0000009  1.          
 BV BOUND     C0000010  1.          
 BV BOUND     C0000011  1.          
 BV BOUND     C0000012  1.          
 BV BOUND     C0000013  1.          
 BV BOUND     C0000014  1.          
 BV BOUND     C0000015  1.          
 BV BOUND     C0000016  1.          
 BV BOUND     C0000017  1.          
 BV BOUND     C0000018  1.          
ENDATA
