data/MCDM/NO_CORR/GEN_FROM_60/19_ITEMS_1000_GEN/K5019W07.KNP.txt
N 19
M 20
LC 19
LC 20
LC 21
LC 22
LC 23
LC 24
LC 25
LC 26
LC 27
LC 28
LC 29
LC 30
LC 31
LC 32
LC 33
LC 34
LC 35
LC 36
LC 37
LR 1
LR 2
LR 3
LR 4
LR 5
LR 6
LR 7
LR 8
LR 9
LR 10
LR 11
LR 12
LR 13
LR 14
LR 15
LR 16
LR 17
LR 18
LR 19
LR 20
LO -276
LO -398
LO -938
LO -627
LO -985
LO -635
LO -838
LO -949
LO -503
LO -361
LO -250
LO -376
LO -98
LO -971
LO -362
LO -890
LO -33
LO -840
LO -850
OS 1
IC 414
IC 195
IC 664
IC 64
IC 289
IC 170
IC 38
IC 69
IC 789
IC 443
IC 188
IC 501
IC 813
IC 469
IC 294
IC 983
IC 140
IC 733
IC 622
IB 3939
